c FILE: jean.col
c Translated from Stanford GraphBase File: jean.gb
c Stanford GraphBase ID: book(?jean?,80,0,1,356,0,0,0)
p edge 80 508
e 1 14
e 2 37
e 2 75
e 2 14
e 3 54
e 3 46
e 3 37
e 3 28
e 3 5
e 3 60
e 3 57
e 3 44
e 3 63
e 3 40
e 3 69
e 3 25
e 3 27
e 3 73
e 3 33
e 4 50
e 4 79
e 4 7
e 4 72
e 4 47
e 4 19
e 4 34
e 4 68
e 4 9
e 4 66
e 5 22
e 5 10
e 5 20
e 5 39
e 5 17
e 5 37
e 5 28
e 5 3
e 6 57
e 6 16
e 6 48
e 6 72
e 6 37
e 6 35
e 6 55
e 6 58
e 6 28
e 7 15
e 7 47
e 7 50
e 7 4
e 7 79
e 7 9
e 7 66
e 7 38
e 7 34
e 7 72
e 7 68
e 7 19
e 8 72
e 8 56
e 9 37
e 9 38
e 9 35
e 9 28
e 9 47
e 9 50
e 9 19
e 9 79
e 9 66
e 9 7
e 9 72
e 9 4
e 9 68
e 9 15
e 9 34
e 10 5
e 10 37
e 10 22
e 10 20
e 10 39
e 10 17
e 11 42
e 11 72
e 12 14
e 13 43
e 14 37
e 14 80
e 14 41
e 14 65
e 14 32
e 14 24
e 14 12
e 14 2
e 14 75
e 14 1
e 15 79
e 15 72
e 15 7
e 15 19
e 15 48
e 15 57
e 15 33
e 15 37
e 15 59
e 15 68
e 15 9
e 15 34
e 15 66
e 15 26
e 15 38
e 15 76
e 15 23
e 15 77
e 15 29
e 16 6
e 16 35
e 16 48
e 16 72
e 16 57
e 16 55
e 16 58
e 17 22
e 17 10
e 17 20
e 17 5
e 17 39
e 17 37
e 18 44
e 18 57
e 18 48
e 19 15
e 19 38
e 19 68
e 19 50
e 19 79
e 19 9
e 19 34
e 19 72
e 19 47
e 19 4
e 19 66
e 19 7
e 20 5
e 20 37
e 20 22
e 20 10
e 20 39
e 20 17
e 22 5
e 22 37
e 22 10
e 22 20
e 22 39
e 22 17
e 23 15
e 23 77
e 24 14
e 25 3
e 25 63
e 25 40
e 25 69
e 25 27
e 25 73
e 25 33
e 26 59
e 26 77
e 26 15
e 26 29
e 27 3
e 27 63
e 27 40
e 27 69
e 27 25
e 27 73
e 27 33
e 28 30
e 28 59
e 28 72
e 28 9
e 28 6
e 28 35
e 28 55
e 28 44
e 28 58
e 28 64
e 28 57
e 28 46
e 28 31
e 28 3
e 28 5
e 28 37
e 28 43
e 29 37
e 29 59
e 29 15
e 29 77
e 29 26
e 29 36
e 29 45
e 30 37
e 30 28
e 30 59
e 31 28
e 31 37
e 32 14
e 33 59
e 33 15
e 33 3
e 33 63
e 33 40
e 33 69
e 33 25
e 33 27
e 33 73
e 34 47
e 34 50
e 34 19
e 34 79
e 34 48
e 34 38
e 34 7
e 34 72
e 34 4
e 34 68
e 34 9
e 34 66
e 34 15
e 35 9
e 35 16
e 35 48
e 35 6
e 35 28
e 35 44
e 35 37
e 35 55
e 35 58
e 35 57
e 36 29
e 37 29
e 37 77
e 37 66
e 37 9
e 37 72
e 37 30
e 37 6
e 37 35
e 37 55
e 37 58
e 37 15
e 37 78
e 37 64
e 37 57
e 37 44
e 37 59
e 37 22
e 37 10
e 37 20
e 37 5
e 37 39
e 37 17
e 37 31
e 37 61
e 37 46
e 37 3
e 37 28
e 37 43
e 37 53
e 37 70
e 37 14
e 37 75
e 37 2
e 37 67
e 37 60
e 37 62
e 38 79
e 38 72
e 38 19
e 38 66
e 38 9
e 38 7
e 38 34
e 38 68
e 38 48
e 38 52
e 38 15
e 39 22
e 39 10
e 39 20
e 39 5
e 39 17
e 39 37
e 40 3
e 40 63
e 40 69
e 40 25
e 40 27
e 40 73
e 40 33
e 41 14
e 42 11
e 42 72
e 43 13
e 43 78
e 43 28
e 43 37
e 44 74
e 44 28
e 44 35
e 44 55
e 44 58
e 44 18
e 44 48
e 44 37
e 44 59
e 44 57
e 44 3
e 45 76
e 45 29
e 46 28
e 46 3
e 46 37
e 46 54
e 47 9
e 47 72
e 47 34
e 47 7
e 47 4
e 47 19
e 47 66
e 48 34
e 48 6
e 48 35
e 48 55
e 48 16
e 48 58
e 48 38
e 48 15
e 48 57
e 48 44
e 48 18
e 50 68
e 50 4
e 50 19
e 50 79
e 50 9
e 50 66
e 50 34
e 50 7
e 50 72
e 51 57
e 52 38
e 53 37
e 54 3
e 54 46
e 55 48
e 55 72
e 55 16
e 55 6
e 55 28
e 55 44
e 55 37
e 55 35
e 55 58
e 55 57
e 56 8
e 57 6
e 57 72
e 57 16
e 57 35
e 57 55
e 57 58
e 57 18
e 57 59
e 57 48
e 57 15
e 57 28
e 57 37
e 57 51
e 57 76
e 57 3
e 57 44
e 58 48
e 58 72
e 58 16
e 58 6
e 58 28
e 58 44
e 58 37
e 58 35
e 58 55
e 58 57
e 59 29
e 59 77
e 59 28
e 59 30
e 59 26
e 59 57
e 59 33
e 59 15
e 59 64
e 59 37
e 59 44
e 60 3
e 60 37
e 61 37
e 62 37
e 63 3
e 63 40
e 63 69
e 63 25
e 63 27
e 63 73
e 63 33
e 64 28
e 64 59
e 64 37
e 65 14
e 66 37
e 66 38
e 66 68
e 66 50
e 66 79
e 66 9
e 66 7
e 66 72
e 66 47
e 66 19
e 66 4
e 66 34
e 66 15
e 67 37
e 68 19
e 68 66
e 68 79
e 68 50
e 68 38
e 68 7
e 68 72
e 68 4
e 68 15
e 68 9
e 68 34
e 69 3
e 69 63
e 69 40
e 69 25
e 69 27
e 69 73
e 69 33
e 70 37
e 72 37
e 72 15
e 72 38
e 72 28
e 72 47
e 72 50
e 72 4
e 72 19
e 72 79
e 72 9
e 72 66
e 72 7
e 72 34
e 72 68
e 72 57
e 72 55
e 72 16
e 72 58
e 72 6
e 72 11
e 72 42
e 72 8
e 73 3
e 73 63
e 73 40
e 73 69
e 73 25
e 73 27
e 73 33
e 74 44
e 74 77
e 75 37
e 75 2
e 75 14
e 76 15
e 76 45
e 76 57
e 77 37
e 77 59
e 77 26
e 77 23
e 77 15
e 77 29
e 77 74
e 78 37
e 78 43
e 79 15
e 79 38
e 79 68
e 79 50
e 79 4
e 79 19
e 79 9
e 79 66
e 79 34
e 79 7
e 79 72
e 80 14
